(set-info :smt-lib-version 2.6)
(set-logic QF_NIA)
(set-info :source |
Generated by: Cristina Borralleras, Daniel Larraz, Albert Oliveras, Enric Rodriguez-Carbonell, Albert Rubio
Generated on: 2017-04-27
Generator: VeryMax
Application: Termination proving
Target solver: barcelogic
|)
(set-info :license "https://creativecommons.org/licenses/by/4.0/")
(set-info :category "industrial")
(set-info :status unsat)
(declare-fun Nl2main_i1 () Int)
(declare-fun Nl2main_i2 () Int)
(declare-fun Nl2main_i3 () Int)
(declare-fun lam0n1 () Int)
(declare-fun lam0n2 () Int)
(declare-fun lam0n3 () Int)
(declare-fun lam0n0 () Int)
(declare-fun Nl2CT1 () Int)
(declare-fun Nl2CT2 () Int)
(declare-fun Nl2CT3 () Int)
(declare-fun lam1n1 () Int)
(declare-fun lam1n2 () Int)
(declare-fun lam1n3 () Int)
(declare-fun lam1n0 () Int)
(declare-fun lam2n1 () Int)
(declare-fun lam2n2 () Int)
(declare-fun lam2n3 () Int)
(declare-fun lam2n0 () Int)
(declare-fun lam3n1 () Int)
(declare-fun lam3n2 () Int)
(declare-fun lam3n3 () Int)
(declare-fun lam3n0 () Int)
(declare-fun lam4n1 () Int)
(declare-fun lam4n2 () Int)
(declare-fun lam4n3 () Int)
(declare-fun lam4n0 () Int)
(declare-fun lam5n1 () Int)
(declare-fun lam5n2 () Int)
(declare-fun lam5n3 () Int)
(declare-fun lam5n0 () Int)
(declare-fun lam6n1 () Int)
(declare-fun lam6n2 () Int)
(declare-fun lam6n3 () Int)
(declare-fun lam6n0 () Int)
(declare-fun lam7n1 () Int)
(declare-fun lam7n2 () Int)
(declare-fun lam7n3 () Int)
(declare-fun lam7n0 () Int)
(declare-fun lam8n0 () Int)
(declare-fun lam8n1 () Int)
(declare-fun lam9n0 () Int)
(declare-fun lam9n1 () Int)
(declare-fun lam10n0 () Int)
(declare-fun lam10n1 () Int)
(declare-fun lam11n0 () Int)
(declare-fun lam11n1 () Int)
(declare-fun lam12n0 () Int)
(declare-fun lam12n1 () Int)
(declare-fun lam13n0 () Int)
(declare-fun lam13n1 () Int)
(declare-fun main_i () Int)
(declare-fun undef2 () Int)
(declare-fun lam17n1 () Int)
(declare-fun lam17n2 () Int)
(declare-fun lam17n3 () Int)
(declare-fun lam17n0 () Int)
(declare-fun RFN1_CT () Int)
(declare-fun RFN1_main_i () Int)
(declare-fun lam21n1 () Int)
(declare-fun lam21n2 () Int)
(declare-fun lam21n3 () Int)
(declare-fun lam21n0 () Int)
(declare-fun lam15n1 () Int)
(declare-fun lam15n2 () Int)
(declare-fun lam15n3 () Int)
(declare-fun lam15n0 () Int)
(declare-fun lam16n1 () Int)
(declare-fun lam16n2 () Int)
(declare-fun lam16n3 () Int)
(declare-fun lam16n0 () Int)
(declare-fun lam19n1 () Int)
(declare-fun lam19n2 () Int)
(declare-fun lam19n3 () Int)
(declare-fun lam19n0 () Int)
(declare-fun lam20n1 () Int)
(declare-fun lam20n2 () Int)
(declare-fun lam20n3 () Int)
(declare-fun lam20n0 () Int)
(declare-fun lam14n1 () Int)
(declare-fun lam14n2 () Int)
(declare-fun lam14n3 () Int)
(declare-fun lam14n0 () Int)
(declare-fun lam18n1 () Int)
(declare-fun lam18n2 () Int)
(declare-fun lam18n3 () Int)
(declare-fun lam18n0 () Int)
(assert ( and ( <= ( - 2 ) Nl2main_i1 ) ( <= Nl2main_i1 2 ) ( <= ( - 2 ) Nl2main_i2 ) ( <= Nl2main_i2 2 ) ( <= ( - 2 ) Nl2main_i3 ) ( <= Nl2main_i3 2 ) ))
(assert ( or ( and ( >= lam0n1 0 ) ( >= lam0n2 0 ) ( >= lam0n3 0 ) ( > ( + ( * 1 lam0n0 ) ( * Nl2CT1 lam0n1 ) ( * Nl2CT2 lam0n2 ) ( * Nl2CT3 lam0n3 ) ( - 1 ) ) 0 ) ( = ( + ( * 1 lam0n0 ) ( * Nl2main_i1 lam0n1 ) ( * Nl2main_i2 lam0n2 ) ( * Nl2main_i3 lam0n3 ) ) 0 ) ) ( and ( >= lam1n1 0 ) ( >= lam1n2 0 ) ( >= lam1n3 0 ) ( > ( + ( * 1 lam1n0 ) ( * Nl2CT1 lam1n1 ) ( * Nl2CT2 lam1n2 ) ( * Nl2CT3 lam1n3 ) ( - 1 ( + Nl2CT1 ( * Nl2main_i1 2 ) ) ) ) 0 ) ( = ( + ( * 1 lam1n0 ) ( * Nl2main_i1 lam1n1 ) ( * Nl2main_i2 lam1n2 ) ( * Nl2main_i3 lam1n3 ) ( - ( + 0 ( * Nl2main_i1 1 ) ) ) ) 0 ) ) ))
(assert ( or ( and ( >= lam0n1 0 ) ( >= lam0n2 0 ) ( >= lam0n3 0 ) ( > ( + ( * 1 lam0n0 ) ( * Nl2CT1 lam0n1 ) ( * Nl2CT2 lam0n2 ) ( * Nl2CT3 lam0n3 ) ( - 1 ) ) 0 ) ( = ( + ( * 1 lam0n0 ) ( * Nl2main_i1 lam0n1 ) ( * Nl2main_i2 lam0n2 ) ( * Nl2main_i3 lam0n3 ) ) 0 ) ) ( and ( >= lam2n1 0 ) ( >= lam2n2 0 ) ( >= lam2n3 0 ) ( > ( + ( * 1 lam2n0 ) ( * Nl2CT1 lam2n1 ) ( * Nl2CT2 lam2n2 ) ( * Nl2CT3 lam2n3 ) ( - 1 ( + Nl2CT2 ( * Nl2main_i2 2 ) ) ) ) 0 ) ( = ( + ( * 1 lam2n0 ) ( * Nl2main_i1 lam2n1 ) ( * Nl2main_i2 lam2n2 ) ( * Nl2main_i3 lam2n3 ) ( - ( + 0 ( * Nl2main_i2 1 ) ) ) ) 0 ) ) ))
(assert ( or ( and ( >= lam0n1 0 ) ( >= lam0n2 0 ) ( >= lam0n3 0 ) ( > ( + ( * 1 lam0n0 ) ( * Nl2CT1 lam0n1 ) ( * Nl2CT2 lam0n2 ) ( * Nl2CT3 lam0n3 ) ( - 1 ) ) 0 ) ( = ( + ( * 1 lam0n0 ) ( * Nl2main_i1 lam0n1 ) ( * Nl2main_i2 lam0n2 ) ( * Nl2main_i3 lam0n3 ) ) 0 ) ) ( and ( >= lam3n1 0 ) ( >= lam3n2 0 ) ( >= lam3n3 0 ) ( > ( + ( * 1 lam3n0 ) ( * Nl2CT1 lam3n1 ) ( * Nl2CT2 lam3n2 ) ( * Nl2CT3 lam3n3 ) ( - 1 ( + Nl2CT3 ( * Nl2main_i3 2 ) ) ) ) 0 ) ( = ( + ( * 1 lam3n0 ) ( * Nl2main_i1 lam3n1 ) ( * Nl2main_i2 lam3n2 ) ( * Nl2main_i3 lam3n3 ) ( - ( + 0 ( * Nl2main_i3 1 ) ) ) ) 0 ) ) ))
(assert ( or ( and ( >= lam4n1 0 ) ( >= lam4n2 0 ) ( >= lam4n3 0 ) ( > ( + ( * ( - 1 ) lam4n0 ) ( * Nl2CT1 lam4n1 ) ( * Nl2CT2 lam4n2 ) ( * Nl2CT3 lam4n3 ) ( - 1 ) ) 0 ) ( = ( + ( * 1 lam4n0 ) ( * Nl2main_i1 lam4n1 ) ( * Nl2main_i2 lam4n2 ) ( * Nl2main_i3 lam4n3 ) ) 0 ) ) ( and ( >= lam5n1 0 ) ( >= lam5n2 0 ) ( >= lam5n3 0 ) ( > ( + ( * ( - 1 ) lam5n0 ) ( * Nl2CT1 lam5n1 ) ( * Nl2CT2 lam5n2 ) ( * Nl2CT3 lam5n3 ) ( - 1 ( + Nl2CT1 ( * Nl2main_i1 ( - 2 ) ) ) ) ) 0 ) ( = ( + ( * 1 lam5n0 ) ( * Nl2main_i1 lam5n1 ) ( * Nl2main_i2 lam5n2 ) ( * Nl2main_i3 lam5n3 ) ( - ( + 0 ( * Nl2main_i1 1 ) ) ) ) 0 ) ) ))
(assert ( or ( and ( >= lam4n1 0 ) ( >= lam4n2 0 ) ( >= lam4n3 0 ) ( > ( + ( * ( - 1 ) lam4n0 ) ( * Nl2CT1 lam4n1 ) ( * Nl2CT2 lam4n2 ) ( * Nl2CT3 lam4n3 ) ( - 1 ) ) 0 ) ( = ( + ( * 1 lam4n0 ) ( * Nl2main_i1 lam4n1 ) ( * Nl2main_i2 lam4n2 ) ( * Nl2main_i3 lam4n3 ) ) 0 ) ) ( and ( >= lam6n1 0 ) ( >= lam6n2 0 ) ( >= lam6n3 0 ) ( > ( + ( * ( - 1 ) lam6n0 ) ( * Nl2CT1 lam6n1 ) ( * Nl2CT2 lam6n2 ) ( * Nl2CT3 lam6n3 ) ( - 1 ( + Nl2CT2 ( * Nl2main_i2 ( - 2 ) ) ) ) ) 0 ) ( = ( + ( * 1 lam6n0 ) ( * Nl2main_i1 lam6n1 ) ( * Nl2main_i2 lam6n2 ) ( * Nl2main_i3 lam6n3 ) ( - ( + 0 ( * Nl2main_i2 1 ) ) ) ) 0 ) ) ))
(assert ( or ( and ( >= lam4n1 0 ) ( >= lam4n2 0 ) ( >= lam4n3 0 ) ( > ( + ( * ( - 1 ) lam4n0 ) ( * Nl2CT1 lam4n1 ) ( * Nl2CT2 lam4n2 ) ( * Nl2CT3 lam4n3 ) ( - 1 ) ) 0 ) ( = ( + ( * 1 lam4n0 ) ( * Nl2main_i1 lam4n1 ) ( * Nl2main_i2 lam4n2 ) ( * Nl2main_i3 lam4n3 ) ) 0 ) ) ( and ( >= lam7n1 0 ) ( >= lam7n2 0 ) ( >= lam7n3 0 ) ( > ( + ( * ( - 1 ) lam7n0 ) ( * Nl2CT1 lam7n1 ) ( * Nl2CT2 lam7n2 ) ( * Nl2CT3 lam7n3 ) ( - 1 ( + Nl2CT3 ( * Nl2main_i3 ( - 2 ) ) ) ) ) 0 ) ( = ( + ( * 1 lam7n0 ) ( * Nl2main_i1 lam7n1 ) ( * Nl2main_i2 lam7n2 ) ( * Nl2main_i3 lam7n3 ) ( - ( + 0 ( * Nl2main_i3 1 ) ) ) ) 0 ) ) ))
(assert ( or ( and ( not ( <= ( * ( - 1 ) main_i ) 0 ) ) ( = ( + main_i ( * ( - 1 ) undef2 ) ) 0 ) ( <= ( + Nl2CT1 ( * ( + 0 Nl2main_i1 ) main_i ) ) 0 ) ( <= ( + Nl2CT2 ( * ( + 0 Nl2main_i2 ) main_i ) ) 0 ) ( <= ( + Nl2CT3 ( * ( + 0 Nl2main_i3 ) main_i ) ) 0 ) ( <= ( + ( - 1 ) main_i ) 0 ) ( <= ( + ( - 1 ) ( * ( - 1 ) main_i ) ) 0 ) ) ( and ( not ( <= main_i 0 ) ) ( = ( + main_i ( * ( - 1 ) undef2 ) ) 0 ) ( <= ( + Nl2CT1 ( * ( + 0 Nl2main_i1 ) main_i ) ) 0 ) ( <= ( + Nl2CT2 ( * ( + 0 Nl2main_i2 ) main_i ) ) 0 ) ( <= ( + Nl2CT3 ( * ( + 0 Nl2main_i3 ) main_i ) ) 0 ) ( <= ( + ( - 1 ) main_i ) 0 ) ( <= ( + ( - 1 ) ( * ( - 1 ) main_i ) ) 0 ) ) ))
(assert ( or ( and ( and ( and ( >= lam17n1 0 ) ( >= lam17n2 0 ) ( >= lam17n3 0 ) ( > ( + ( * 1 lam17n0 ) ( * Nl2CT1 lam17n1 ) ( * Nl2CT2 lam17n2 ) ( * Nl2CT3 lam17n3 ) ( - 1 ( - ( + RFN1_CT ( * RFN1_main_i 2 ) ) RFN1_CT ) ) ) 0 ) ( = ( + ( * 1 lam17n0 ) ( * Nl2main_i1 lam17n1 ) ( * Nl2main_i2 lam17n2 ) ( * Nl2main_i3 lam17n3 ) ( - ( - ( + 0 ( * RFN1_main_i 1 ) ) RFN1_main_i ) ) ) 0 ) ) ( and ( >= lam21n1 0 ) ( >= lam21n2 0 ) ( >= lam21n3 0 ) ( > ( + ( * ( - 1 ) lam21n0 ) ( * Nl2CT1 lam21n1 ) ( * Nl2CT2 lam21n2 ) ( * Nl2CT3 lam21n3 ) ( - 1 ( - ( + RFN1_CT ( * RFN1_main_i ( - 2 ) ) ) RFN1_CT ) ) ) 0 ) ( = ( + ( * 1 lam21n0 ) ( * Nl2main_i1 lam21n1 ) ( * Nl2main_i2 lam21n2 ) ( * Nl2main_i3 lam21n3 ) ( - ( - ( + 0 ( * RFN1_main_i 1 ) ) RFN1_main_i ) ) ) 0 ) ) ) ( or ( and ( and ( >= lam15n1 0 ) ( >= lam15n2 0 ) ( >= lam15n3 0 ) ( > ( + ( * 1 lam15n0 ) ( * Nl2CT1 lam15n1 ) ( * Nl2CT2 lam15n2 ) ( * Nl2CT3 lam15n3 ) ( - 1 ( - RFN1_CT ) ) ) 0 ) ( = ( + ( * 1 lam15n0 ) ( * Nl2main_i1 lam15n1 ) ( * Nl2main_i2 lam15n2 ) ( * Nl2main_i3 lam15n3 ) ( - ( - RFN1_main_i ) ) ) 0 ) ) ( and ( >= lam16n1 0 ) ( >= lam16n2 0 ) ( >= lam16n3 0 ) ( > ( + ( * 1 lam16n0 ) ( * Nl2CT1 lam16n1 ) ( * Nl2CT2 lam16n2 ) ( * Nl2CT3 lam16n3 ) ( - 1 ( + ( - ( + RFN1_CT ( * RFN1_main_i 2 ) ) RFN1_CT ) 1 ) ) ) 0 ) ( = ( + ( * 1 lam16n0 ) ( * Nl2main_i1 lam16n1 ) ( * Nl2main_i2 lam16n2 ) ( * Nl2main_i3 lam16n3 ) ( - ( - ( + 0 ( * RFN1_main_i 1 ) ) RFN1_main_i ) ) ) 0 ) ) ) ( and ( and ( >= lam19n1 0 ) ( >= lam19n2 0 ) ( >= lam19n3 0 ) ( > ( + ( * ( - 1 ) lam19n0 ) ( * Nl2CT1 lam19n1 ) ( * Nl2CT2 lam19n2 ) ( * Nl2CT3 lam19n3 ) ( - 1 ( - RFN1_CT ) ) ) 0 ) ( = ( + ( * 1 lam19n0 ) ( * Nl2main_i1 lam19n1 ) ( * Nl2main_i2 lam19n2 ) ( * Nl2main_i3 lam19n3 ) ( - ( - RFN1_main_i ) ) ) 0 ) ) ( and ( >= lam20n1 0 ) ( >= lam20n2 0 ) ( >= lam20n3 0 ) ( > ( + ( * ( - 1 ) lam20n0 ) ( * Nl2CT1 lam20n1 ) ( * Nl2CT2 lam20n2 ) ( * Nl2CT3 lam20n3 ) ( - 1 ( + ( - ( + RFN1_CT ( * RFN1_main_i ( - 2 ) ) ) RFN1_CT ) 1 ) ) ) 0 ) ( = ( + ( * 1 lam20n0 ) ( * Nl2main_i1 lam20n1 ) ( * Nl2main_i2 lam20n2 ) ( * Nl2main_i3 lam20n3 ) ( - ( - ( + 0 ( * RFN1_main_i 1 ) ) RFN1_main_i ) ) ) 0 ) ) ) ) ) ( or ( and ( >= lam14n1 0 ) ( >= lam14n2 0 ) ( >= lam14n3 0 ) ( > ( + ( * 1 lam14n0 ) ( * Nl2CT1 lam14n1 ) ( * Nl2CT2 lam14n2 ) ( * Nl2CT3 lam14n3 ) ( - 1 ) ) 0 ) ( = ( + ( * 1 lam14n0 ) ( * Nl2main_i1 lam14n1 ) ( * Nl2main_i2 lam14n2 ) ( * Nl2main_i3 lam14n3 ) ) 0 ) ) ( and ( >= lam18n1 0 ) ( >= lam18n2 0 ) ( >= lam18n3 0 ) ( > ( + ( * ( - 1 ) lam18n0 ) ( * Nl2CT1 lam18n1 ) ( * Nl2CT2 lam18n2 ) ( * Nl2CT3 lam18n3 ) ( - 1 ) ) 0 ) ( = ( + ( * 1 lam18n0 ) ( * Nl2main_i1 lam18n1 ) ( * Nl2main_i2 lam18n2 ) ( * Nl2main_i3 lam18n3 ) ) 0 ) ) ) ))
(check-sat)
(exit)
